10
20
799559
0
0
34 75 33 67 3 21 86 84 9 112 82 7 20 191 27 30 18 18 4 8
1
0
5 110 183 25 51 37 50 44 39 4 60 60 15 4 35 41 19 16 93 28
2
0
114 145 72 1 155 31 28 16 26 5 44 10 121 90 18 29 36 44 43 114
3
0
45 5 4 74 76 39 12 25 24 13 143 1 11 10 74 76 31 14 67 34
4
0
143 7 97 72 35 16 260 42 37 15 92 33 79 46 25 39 166 118 28 97
5
0
21 10 23 25 6 26 6 0 44 117 38 45 0 101 11 134 1 1 6 49
6
0
85 9 7 0 15 80 85 67 132 1 44 34 7 54 9 85 127 17 6 26
7
0
98 40 48 67 100 53 144 78 47 29 18 32 18 14 12 9 56 30 19 42
8
0
17 53 37 181 43 4 36 13 48 0 6 24 54 21 21 29 5 17 15 33
9
0
11 6 118 28 205 45 40 226 40 32 198 62 63 100 88 63 59 142 2 68
